\ 375168
\ Scenario: S_ninety_smallLP_130
Maximize
obj:
+ 0.99999949 xa30__1 - 0.00100100 ya30__1 + 1.00000000 ya30__2 -
6000.00000000 dSepP__1__2
-4000.00000000 dSepL__1__2 -6000.00000000 dSepZ__1__2
Subject To
hSpdBk30a__1_1n: + 0.99999949 xa30__1 - 0.00100100 ya30__1>=
0.53856326
hSpdLF30a__1_1n: + 0.96069908 xa30__1 + 0.27759192 ya30__1<=
0.66320703
hSpdLf30a__1_1n: + 0.99566980 xa30__1 + 0.09296045 ya30__1<=
0.59243760
hSpdRt30a__1_1n: + 0.99548169 xa30__1 - 0.09495360 ya30__1<=
0.50777225
hSpdRT30a__1_1n: + 0.96014141 xa30__1 - 0.27951468 ya30__1<=
0.41220067
vSpdEq_30a__1_1: + 1.00000000 za30__1= 0.31000000
hSpdBk30a__2_1n: + 1.00000000 ya30__2>= 0.53600000
hSpdLF30a__2_1n: - 0.27855344 xa30__2 + 0.96042072 ya30__2<=
0.40991345
hSpdLf30a__2_1n: - 0.09395707 xa30__2 + 0.99557624 ya30__2<=
0.50528625
hSpdRt30a__2_1n: + 0.09395707 xa30__2 + 0.99557624 ya30__2<=
0.58984762
hSpdRT30a__2_1n: + 0.27855344 xa30__2 + 0.96042072 ya30__2<=
0.66061155
vSpdEq_30a__2_1: + 1.00000000 za30__2= 0.31000000
SEPh__0__1__2_0nb: - 0.00381104 xa30__2 - 0.00546995 ya30__2 +
1.00000000 dSepP__1__2>= -0.03022046
SEPh_30__1__2_1ne: + 0.57165712 xa30__1 + 0.82049261 ya30__1 -
0.57165712 xa30__2 - 0.82049261 ya30__2
+ 1.00000000 dSepP__1__2>= 0.01120000
Bounds
xa30__1 free
ya30__1 free
xa30__2 free
ya30__2 free
End
